30 97 44 11 99 20 25 40 28 64 75 50 4 24 16 74 45 60 1 82 36 22 31 67 93 6 53 8 79 19 5 43 72 92 66 7 37 39 54 35 76 86 98 12 94 49 15 56 58 81 38 46 65 33 10 78 0 18 90 41 68 29 14 34 59 85 48 89 61 63 52 9 26 51 95 27 73 87 21 47 83 57 71 3 70 17 88 77 91 62 96 69 13 42 23 84 55 32 80 2